\* The_Diet_Problem *\
Minimize
Total_Cost_of_Ingredients: 0.23 Ingr_2%_Lowfat_Milk
 + 0.16 Ingr_3.3%_Fat,Whole_Milk + 0.24 Ingr_Apple,Raw,W_Skin
 + 0.16 Ingr_Apple_Pie + 0.16 Ingr_Bagels + 0.15 Ingr_Banana
 + 0.67 Ingr_Beanbacn_Soup,W_Watr + 0.15 Ingr_Bologna,Turkey
 + 0.05 Ingr_Butter,Regular + 0.31 Ingr_Cap'N_Crunch + 0.07 Ingr_Carrots,Raw
 + 0.04 Ingr_Celery,_Raw + 0.25 Ingr_Cheddar_Cheese + 0.28 Ingr_Cheerios
 + 0.39 Ingr_Chicknoodl_Soup + 0.03 Ingr_Chocolate_Chip_Cookies
 + 0.28 Ingr_Corn_Flks,_Kellogg'S + 0.39 Ingr_Couscous
 + 0.65 Ingr_Crm_Mshrm_Soup,W_Mlk + 0.27 Ingr_Frankfurter,_Beef
 + 0.16 Ingr_Frozen_Broccoli + 0.18 Ingr_Frozen_Corn + 0.32 Ingr_Grapes
 + 0.33 Ingr_Ham,Sliced,Extralean + 0.83 Ingr_Hamburger_W_Toppings
 + 0.31 Ingr_Hotdog,_Plain + 0.15 Ingr_Kielbasa,Prk
 + 0.49 Ingr_Kiwifruit,Raw,Fresh + 0.02 Ingr_Lettuce,Iceberg,Raw
 + 0.17 Ingr_Macaroni,Ckd + 0.52 Ingr_Malt_O_Meal,Choc
 + 0.99 Ingr_New_E_Clamchwd,W_Mlk + 0.75 Ingr_Neweng_Clamchwd
 + 0.82 Ingr_Oatmeal + 0.09 Ingr_Oatmeal_Cookies + 0.15 Ingr_Oranges
 + 0.07 Ingr_Peanut_Butter + 0.53 Ingr_Peppers,_Sweet,_Raw
 + 0.44 Ingr_Pizza_W_Pepperoni + 0.08 Ingr_Poached_Eggs
 + 0.04 Ingr_Popcorn,Air_Popped + 0.81 Ingr_Pork
 + 0.22 Ingr_Potato_Chips,Bbqflvr + 0.06 Ingr_Potatoes,_Baked
 + 0.12 Ingr_Pretzels + 0.34 Ingr_Raisin_Brn,_Kellg'S
 + 0.32 Ingr_Rice_Krispies + 0.84 Ingr_Roasted_Chicken
 + 0.45 Ingr_Sardines_in_Oil + 0.11 Ingr_Scrambled_Eggs + 0.13 Ingr_Skim_Milk
 + 0.78 Ingr_Spaghetti_W__Sauce + 0.38 Ingr_Special_K
 + 0.67 Ingr_Splt_Pea&Hamsoup + 0.59 Ingr_Taco + 0.31 Ingr_Tofu
 + 0.27 Ingr_Tomato,Red,Ripe,Raw + 0.39 Ingr_Tomato_Soup
 + 0.19 Ingr_Tortilla_Chip + 0.71 Ingr_Vegetbeef_Soup + 0.05 Ingr_Wheat_Bread
 + 0.06 Ingr_White_Bread + 0.08 Ingr_White_Rice
 + 0.69 Ingr_White_Tuna_in_Water
Subject To
Calcium_mg_maximum: 296.7 Ingr_2%_Lowfat_Milk + 291.3 Ingr_3.3%_Fat,Whole_Milk
 + 9.7 Ingr_Apple,Raw,W_Skin + 3.1 Ingr_Apple_Pie + 21 Ingr_Bagels
 + 6.8 Ingr_Banana + 81 Ingr_Beanbacn_Soup,W_Watr + 23.8 Ingr_Bologna,Turkey
 + 1.2 Ingr_Butter,Regular + 4.8 Ingr_Cap'N_Crunch + 14.9 Ingr_Carrots,Raw
 + 16 Ingr_Celery,_Raw + 202 Ingr_Cheddar_Cheese + 48.6 Ingr_Cheerios
 + 27.1 Ingr_Chicknoodl_Soup + 6.2 Ingr_Chocolate_Chip_Cookies
 + 0.9 Ingr_Corn_Flks,_Kellogg'S + 7.2 Ingr_Couscous
 + 178.6 Ingr_Crm_Mshrm_Soup,W_Mlk + 9 Ingr_Frankfurter,_Beef
 + 159 Ingr_Frozen_Broccoli + 3.3 Ingr_Frozen_Corn + 3.4 Ingr_Grapes
 + 2 Ingr_Ham,Sliced,Extralean + 51.4 Ingr_Hamburger_W_Toppings
 + 23.5 Ingr_Hotdog,_Plain + 11.4 Ingr_Kielbasa,Prk
 + 19.8 Ingr_Kiwifruit,Raw,Fresh + 3.8 Ingr_Lettuce,Iceberg,Raw
 + 4.9 Ingr_Macaroni,Ckd + 23.1 Ingr_Malt_O_Meal,Choc
 + 186 Ingr_New_E_Clamchwd,W_Mlk + 82.8 Ingr_Neweng_Clamchwd
 + 18.7 Ingr_Oatmeal + 6.7 Ingr_Oatmeal_Cookies + 52.4 Ingr_Oranges
 + 13.1 Ingr_Peanut_Butter + 6.7 Ingr_Peppers,_Sweet,_Raw
 + 64.6 Ingr_Pizza_W_Pepperoni + 24.5 Ingr_Poached_Eggs
 + 2.8 Ingr_Popcorn,Air_Popped + 59.9 Ingr_Pork
 + 14.2 Ingr_Potato_Chips,Bbqflvr + 22.7 Ingr_Potatoes,_Baked
 + 10.2 Ingr_Pretzels + 12.9 Ingr_Raisin_Brn,_Kellg'S + 4 Ingr_Rice_Krispies
 + 21.9 Ingr_Roasted_Chicken + 91.7 Ingr_Sardines_in_Oil
 + 42.6 Ingr_Scrambled_Eggs + 302.3 Ingr_Skim_Milk
 + 80.2 Ingr_Spaghetti_W__Sauce + 8.2 Ingr_Special_K
 + 33.6 Ingr_Splt_Pea&Hamsoup + 220.6 Ingr_Taco + 121.8 Ingr_Tofu
 + 6.2 Ingr_Tomato,Red,Ripe,Raw + 27.6 Ingr_Tomato_Soup
 + 43.7 Ingr_Tortilla_Chip + 32.6 Ingr_Vegetbeef_Soup + 10.8 Ingr_Wheat_Bread
 + 26.2 Ingr_White_Bread + 7.9 Ingr_White_Rice + 3.4 Ingr_White_Tuna_in_Water
 <= 1500
Calcium_mg_minimum: 296.7 Ingr_2%_Lowfat_Milk + 291.3 Ingr_3.3%_Fat,Whole_Milk
 + 9.7 Ingr_Apple,Raw,W_Skin + 3.1 Ingr_Apple_Pie + 21 Ingr_Bagels
 + 6.8 Ingr_Banana + 81 Ingr_Beanbacn_Soup,W_Watr + 23.8 Ingr_Bologna,Turkey
 + 1.2 Ingr_Butter,Regular + 4.8 Ingr_Cap'N_Crunch + 14.9 Ingr_Carrots,Raw
 + 16 Ingr_Celery,_Raw + 202 Ingr_Cheddar_Cheese + 48.6 Ingr_Cheerios
 + 27.1 Ingr_Chicknoodl_Soup + 6.2 Ingr_Chocolate_Chip_Cookies
 + 0.9 Ingr_Corn_Flks,_Kellogg'S + 7.2 Ingr_Couscous
 + 178.6 Ingr_Crm_Mshrm_Soup,W_Mlk + 9 Ingr_Frankfurter,_Beef
 + 159 Ingr_Frozen_Broccoli + 3.3 Ingr_Frozen_Corn + 3.4 Ingr_Grapes
 + 2 Ingr_Ham,Sliced,Extralean + 51.4 Ingr_Hamburger_W_Toppings
 + 23.5 Ingr_Hotdog,_Plain + 11.4 Ingr_Kielbasa,Prk
 + 19.8 Ingr_Kiwifruit,Raw,Fresh + 3.8 Ingr_Lettuce,Iceberg,Raw
 + 4.9 Ingr_Macaroni,Ckd + 23.1 Ingr_Malt_O_Meal,Choc
 + 186 Ingr_New_E_Clamchwd,W_Mlk + 82.8 Ingr_Neweng_Clamchwd
 + 18.7 Ingr_Oatmeal + 6.7 Ingr_Oatmeal_Cookies + 52.4 Ingr_Oranges
 + 13.1 Ingr_Peanut_Butter + 6.7 Ingr_Peppers,_Sweet,_Raw
 + 64.6 Ingr_Pizza_W_Pepperoni + 24.5 Ingr_Poached_Eggs
 + 2.8 Ingr_Popcorn,Air_Popped + 59.9 Ingr_Pork
 + 14.2 Ingr_Potato_Chips,Bbqflvr + 22.7 Ingr_Potatoes,_Baked
 + 10.2 Ingr_Pretzels + 12.9 Ingr_Raisin_Brn,_Kellg'S + 4 Ingr_Rice_Krispies
 + 21.9 Ingr_Roasted_Chicken + 91.7 Ingr_Sardines_in_Oil
 + 42.6 Ingr_Scrambled_Eggs + 302.3 Ingr_Skim_Milk
 + 80.2 Ingr_Spaghetti_W__Sauce + 8.2 Ingr_Special_K
 + 33.6 Ingr_Splt_Pea&Hamsoup + 220.6 Ingr_Taco + 121.8 Ingr_Tofu
 + 6.2 Ingr_Tomato,Red,Ripe,Raw + 27.6 Ingr_Tomato_Soup
 + 43.7 Ingr_Tortilla_Chip + 32.6 Ingr_Vegetbeef_Soup + 10.8 Ingr_Wheat_Bread
 + 26.2 Ingr_White_Bread + 7.9 Ingr_White_Rice + 3.4 Ingr_White_Tuna_in_Water
 >= 700
Calories_maximum: 121.2 Ingr_2%_Lowfat_Milk + 149.9 Ingr_3.3%_Fat,Whole_Milk
 + 81.4 Ingr_Apple,Raw,W_Skin + 67.2 Ingr_Apple_Pie + 78 Ingr_Bagels
 + 104.9 Ingr_Banana + 172 Ingr_Beanbacn_Soup,W_Watr
 + 56.4 Ingr_Bologna,Turkey + 35.8 Ingr_Butter,Regular
 + 119.6 Ingr_Cap'N_Crunch + 23.7 Ingr_Carrots,Raw + 6.4 Ingr_Celery,_Raw
 + 112.7 Ingr_Cheddar_Cheese + 111 Ingr_Cheerios + 150.1 Ingr_Chicknoodl_Soup
 + 78.1 Ingr_Chocolate_Chip_Cookies + 110.5 Ingr_Corn_Flks,_Kellogg'S
 + 100.8 Ingr_Couscous + 203.4 Ingr_Crm_Mshrm_Soup,W_Mlk
 + 141.8 Ingr_Frankfurter,_Beef + 73.8 Ingr_Frozen_Broccoli
 + 72.2 Ingr_Frozen_Corn + 15.1 Ingr_Grapes + 37.1 Ingr_Ham,Sliced,Extralean
 + 275 Ingr_Hamburger_W_Toppings + 242.1 Ingr_Hotdog,_Plain
 + 80.6 Ingr_Kielbasa,Prk + 46.4 Ingr_Kiwifruit,Raw,Fresh
 + 2.6 Ingr_Lettuce,Iceberg,Raw + 98.7 Ingr_Macaroni,Ckd
 + 607.2 Ingr_Malt_O_Meal,Choc + 163.7 Ingr_New_E_Clamchwd,W_Mlk
 + 175.7 Ingr_Neweng_Clamchwd + 145.1 Ingr_Oatmeal + 81 Ingr_Oatmeal_Cookies
 + 61.6 Ingr_Oranges + 188.5 Ingr_Peanut_Butter + 20 Ingr_Peppers,_Sweet,_Raw
 + 181 Ingr_Pizza_W_Pepperoni + 74.5 Ingr_Poached_Eggs
 + 108.3 Ingr_Popcorn,Air_Popped + 710.8 Ingr_Pork
 + 139.2 Ingr_Potato_Chips,Bbqflvr + 171.5 Ingr_Potatoes,_Baked
 + 108 Ingr_Pretzels + 115.1 Ingr_Raisin_Brn,_Kellg'S
 + 112.2 Ingr_Rice_Krispies + 277.4 Ingr_Roasted_Chicken
 + 49.9 Ingr_Sardines_in_Oil + 99.6 Ingr_Scrambled_Eggs + 85.5 Ingr_Skim_Milk
 + 358.2 Ingr_Spaghetti_W__Sauce + 110.8 Ingr_Special_K
 + 184.8 Ingr_Splt_Pea&Hamsoup + 369.4 Ingr_Taco + 88.2 Ingr_Tofu
 + 25.8 Ingr_Tomato,Red,Ripe,Raw + 170.7 Ingr_Tomato_Soup
 + 142 Ingr_Tortilla_Chip + 158.1 Ingr_Vegetbeef_Soup + 65 Ingr_Wheat_Bread
 + 65 Ingr_White_Bread + 102.7 Ingr_White_Rice
 + 115.6 Ingr_White_Tuna_in_Water <= 2500
Calories_minimum: 121.2 Ingr_2%_Lowfat_Milk + 149.9 Ingr_3.3%_Fat,Whole_Milk
 + 81.4 Ingr_Apple,Raw,W_Skin + 67.2 Ingr_Apple_Pie + 78 Ingr_Bagels
 + 104.9 Ingr_Banana + 172 Ingr_Beanbacn_Soup,W_Watr
 + 56.4 Ingr_Bologna,Turkey + 35.8 Ingr_Butter,Regular
 + 119.6 Ingr_Cap'N_Crunch + 23.7 Ingr_Carrots,Raw + 6.4 Ingr_Celery,_Raw
 + 112.7 Ingr_Cheddar_Cheese + 111 Ingr_Cheerios + 150.1 Ingr_Chicknoodl_Soup
 + 78.1 Ingr_Chocolate_Chip_Cookies + 110.5 Ingr_Corn_Flks,_Kellogg'S
 + 100.8 Ingr_Couscous + 203.4 Ingr_Crm_Mshrm_Soup,W_Mlk
 + 141.8 Ingr_Frankfurter,_Beef + 73.8 Ingr_Frozen_Broccoli
 + 72.2 Ingr_Frozen_Corn + 15.1 Ingr_Grapes + 37.1 Ingr_Ham,Sliced,Extralean
 + 275 Ingr_Hamburger_W_Toppings + 242.1 Ingr_Hotdog,_Plain
 + 80.6 Ingr_Kielbasa,Prk + 46.4 Ingr_Kiwifruit,Raw,Fresh
 + 2.6 Ingr_Lettuce,Iceberg,Raw + 98.7 Ingr_Macaroni,Ckd
 + 607.2 Ingr_Malt_O_Meal,Choc + 163.7 Ingr_New_E_Clamchwd,W_Mlk
 + 175.7 Ingr_Neweng_Clamchwd + 145.1 Ingr_Oatmeal + 81 Ingr_Oatmeal_Cookies
 + 61.6 Ingr_Oranges + 188.5 Ingr_Peanut_Butter + 20 Ingr_Peppers,_Sweet,_Raw
 + 181 Ingr_Pizza_W_Pepperoni + 74.5 Ingr_Poached_Eggs
 + 108.3 Ingr_Popcorn,Air_Popped + 710.8 Ingr_Pork
 + 139.2 Ingr_Potato_Chips,Bbqflvr + 171.5 Ingr_Potatoes,_Baked
 + 108 Ingr_Pretzels + 115.1 Ingr_Raisin_Brn,_Kellg'S
 + 112.2 Ingr_Rice_Krispies + 277.4 Ingr_Roasted_Chicken
 + 49.9 Ingr_Sardines_in_Oil + 99.6 Ingr_Scrambled_Eggs + 85.5 Ingr_Skim_Milk
 + 358.2 Ingr_Spaghetti_W__Sauce + 110.8 Ingr_Special_K
 + 184.8 Ingr_Splt_Pea&Hamsoup + 369.4 Ingr_Taco + 88.2 Ingr_Tofu
 + 25.8 Ingr_Tomato,Red,Ripe,Raw + 170.7 Ingr_Tomato_Soup
 + 142 Ingr_Tortilla_Chip + 158.1 Ingr_Vegetbeef_Soup + 65 Ingr_Wheat_Bread
 + 65 Ingr_White_Bread + 102.7 Ingr_White_Rice
 + 115.6 Ingr_White_Tuna_in_Water >= 1500
Carbohydrates_g_maximum: 11.7 Ingr_2%_Lowfat_Milk
 + 11.4 Ingr_3.3%_Fat,Whole_Milk + 21 Ingr_Apple,Raw,W_Skin
 + 9.6 Ingr_Apple_Pie + 15.1 Ingr_Bagels + 26.7 Ingr_Banana
 + 22.8 Ingr_Beanbacn_Soup,W_Watr + 0.3 Ingr_Bologna,Turkey
 + 23 Ingr_Cap'N_Crunch + 5.6 Ingr_Carrots,Raw + 1.5 Ingr_Celery,_Raw
 + 0.4 Ingr_Cheddar_Cheese + 19.6 Ingr_Cheerios + 18.7 Ingr_Chicknoodl_Soup
 + 9.3 Ingr_Chocolate_Chip_Cookies + 24.5 Ingr_Corn_Flks,_Kellogg'S
 + 20.9 Ingr_Couscous + 15 Ingr_Crm_Mshrm_Soup,W_Mlk
 + 0.8 Ingr_Frankfurter,_Beef + 13.6 Ingr_Frozen_Broccoli
 + 17.1 Ingr_Frozen_Corn + 4.1 Ingr_Grapes + 0.3 Ingr_Ham,Sliced,Extralean
 + 32.7 Ingr_Hamburger_W_Toppings + 18 Ingr_Hotdog,_Plain
 + 0.6 Ingr_Kielbasa,Prk + 11.3 Ingr_Kiwifruit,Raw,Fresh
 + 0.4 Ingr_Lettuce,Iceberg,Raw + 19.8 Ingr_Macaroni,Ckd
 + 128.2 Ingr_Malt_O_Meal,Choc + 16.6 Ingr_New_E_Clamchwd,W_Mlk
 + 21.8 Ingr_Neweng_Clamchwd + 25.3 Ingr_Oatmeal + 12.4 Ingr_Oatmeal_Cookies
 + 15.4 Ingr_Oranges + 6.9 Ingr_Peanut_Butter + 4.8 Ingr_Peppers,_Sweet,_Raw
 + 19.9 Ingr_Pizza_W_Pepperoni + 0.6 Ingr_Poached_Eggs
 + 22.1 Ingr_Popcorn,Air_Popped + 15 Ingr_Potato_Chips,Bbqflvr
 + 39.9 Ingr_Potatoes,_Baked + 22.5 Ingr_Pretzels
 + 27.9 Ingr_Raisin_Brn,_Kellg'S + 24.8 Ingr_Rice_Krispies
 + 1.3 Ingr_Scrambled_Eggs + 11.9 Ingr_Skim_Milk
 + 58.3 Ingr_Spaghetti_W__Sauce + 21.3 Ingr_Special_K
 + 26.8 Ingr_Splt_Pea&Hamsoup + 26.7 Ingr_Taco + 2.2 Ingr_Tofu
 + 5.7 Ingr_Tomato,Red,Ripe,Raw + 33.2 Ingr_Tomato_Soup
 + 17.8 Ingr_Tortilla_Chip + 20.4 Ingr_Vegetbeef_Soup + 12.4 Ingr_Wheat_Bread
 + 11.8 Ingr_White_Bread + 22.3 Ingr_White_Rice <= 450
Carbohydrates_g_minimum: 11.7 Ingr_2%_Lowfat_Milk
 + 11.4 Ingr_3.3%_Fat,Whole_Milk + 21 Ingr_Apple,Raw,W_Skin
 + 9.6 Ingr_Apple_Pie + 15.1 Ingr_Bagels + 26.7 Ingr_Banana
 + 22.8 Ingr_Beanbacn_Soup,W_Watr + 0.3 Ingr_Bologna,Turkey
 + 23 Ingr_Cap'N_Crunch + 5.6 Ingr_Carrots,Raw + 1.5 Ingr_Celery,_Raw
 + 0.4 Ingr_Cheddar_Cheese + 19.6 Ingr_Cheerios + 18.7 Ingr_Chicknoodl_Soup
 + 9.3 Ingr_Chocolate_Chip_Cookies + 24.5 Ingr_Corn_Flks,_Kellogg'S
 + 20.9 Ingr_Couscous + 15 Ingr_Crm_Mshrm_Soup,W_Mlk
 + 0.8 Ingr_Frankfurter,_Beef + 13.6 Ingr_Frozen_Broccoli
 + 17.1 Ingr_Frozen_Corn + 4.1 Ingr_Grapes + 0.3 Ingr_Ham,Sliced,Extralean
 + 32.7 Ingr_Hamburger_W_Toppings + 18 Ingr_Hotdog,_Plain
 + 0.6 Ingr_Kielbasa,Prk + 11.3 Ingr_Kiwifruit,Raw,Fresh
 + 0.4 Ingr_Lettuce,Iceberg,Raw + 19.8 Ingr_Macaroni,Ckd
 + 128.2 Ingr_Malt_O_Meal,Choc + 16.6 Ingr_New_E_Clamchwd,W_Mlk
 + 21.8 Ingr_Neweng_Clamchwd + 25.3 Ingr_Oatmeal + 12.4 Ingr_Oatmeal_Cookies
 + 15.4 Ingr_Oranges + 6.9 Ingr_Peanut_Butter + 4.8 Ingr_Peppers,_Sweet,_Raw
 + 19.9 Ingr_Pizza_W_Pepperoni + 0.6 Ingr_Poached_Eggs
 + 22.1 Ingr_Popcorn,Air_Popped + 15 Ingr_Potato_Chips,Bbqflvr
 + 39.9 Ingr_Potatoes,_Baked + 22.5 Ingr_Pretzels
 + 27.9 Ingr_Raisin_Brn,_Kellg'S + 24.8 Ingr_Rice_Krispies
 + 1.3 Ingr_Scrambled_Eggs + 11.9 Ingr_Skim_Milk
 + 58.3 Ingr_Spaghetti_W__Sauce + 21.3 Ingr_Special_K
 + 26.8 Ingr_Splt_Pea&Hamsoup + 26.7 Ingr_Taco + 2.2 Ingr_Tofu
 + 5.7 Ingr_Tomato,Red,Ripe,Raw + 33.2 Ingr_Tomato_Soup
 + 17.8 Ingr_Tortilla_Chip + 20.4 Ingr_Vegetbeef_Soup + 12.4 Ingr_Wheat_Bread
 + 11.8 Ingr_White_Bread + 22.3 Ingr_White_Rice >= 130
Cholesterol_mg_maximum: 18.3 Ingr_2%_Lowfat_Milk
 + 33.2 Ingr_3.3%_Fat,Whole_Milk + 2.5 Ingr_Beanbacn_Soup,W_Watr
 + 28.1 Ingr_Bologna,Turkey + 10.9 Ingr_Butter,Regular
 + 29.4 Ingr_Cheddar_Cheese + 12.3 Ingr_Chicknoodl_Soup
 + 5.1 Ingr_Chocolate_Chip_Cookies + 19.8 Ingr_Crm_Mshrm_Soup,W_Mlk
 + 27.4 Ingr_Frankfurter,_Beef + 13.3 Ingr_Ham,Sliced,Extralean
 + 42.8 Ingr_Hamburger_W_Toppings + 44.1 Ingr_Hotdog,_Plain
 + 17.4 Ingr_Kielbasa,Prk + 22.3 Ingr_New_E_Clamchwd,W_Mlk
 + 10 Ingr_Neweng_Clamchwd + 14.2 Ingr_Pizza_W_Pepperoni
 + 211.5 Ingr_Poached_Eggs + 105.1 Ingr_Pork + 129.9 Ingr_Roasted_Chicken
 + 34.1 Ingr_Sardines_in_Oil + 211.2 Ingr_Scrambled_Eggs + 4.4 Ingr_Skim_Milk
 + 7.2 Ingr_Splt_Pea&Hamsoup + 56.4 Ingr_Taco + 10 Ingr_Vegetbeef_Soup
 + 35.7 Ingr_White_Tuna_in_Water <= 240
Cholesterol_mg_minimum: 18.3 Ingr_2%_Lowfat_Milk
 + 33.2 Ingr_3.3%_Fat,Whole_Milk + 2.5 Ingr_Beanbacn_Soup,W_Watr
 + 28.1 Ingr_Bologna,Turkey + 10.9 Ingr_Butter,Regular
 + 29.4 Ingr_Cheddar_Cheese + 12.3 Ingr_Chicknoodl_Soup
 + 5.1 Ingr_Chocolate_Chip_Cookies + 19.8 Ingr_Crm_Mshrm_Soup,W_Mlk
 + 27.4 Ingr_Frankfurter,_Beef + 13.3 Ingr_Ham,Sliced,Extralean
 + 42.8 Ingr_Hamburger_W_Toppings + 44.1 Ingr_Hotdog,_Plain
 + 17.4 Ingr_Kielbasa,Prk + 22.3 Ingr_New_E_Clamchwd,W_Mlk
 + 10 Ingr_Neweng_Clamchwd + 14.2 Ingr_Pizza_W_Pepperoni
 + 211.5 Ingr_Poached_Eggs + 105.1 Ingr_Pork + 129.9 Ingr_Roasted_Chicken
 + 34.1 Ingr_Sardines_in_Oil + 211.2 Ingr_Scrambled_Eggs + 4.4 Ingr_Skim_Milk
 + 7.2 Ingr_Splt_Pea&Hamsoup + 56.4 Ingr_Taco + 10 Ingr_Vegetbeef_Soup
 + 35.7 Ingr_White_Tuna_in_Water >= 30
Dietary_Fiber_g_maximum: 3.7 Ingr_Apple,Raw,W_Skin + 0.5 Ingr_Apple_Pie
 + 0.6 Ingr_Bagels + 2.7 Ingr_Banana + 8.6 Ingr_Beanbacn_Soup,W_Watr
 + 0.5 Ingr_Cap'N_Crunch + 1.6 Ingr_Carrots,Raw + 0.7 Ingr_Celery,_Raw
 + 2 Ingr_Cheerios + 1.5 Ingr_Chicknoodl_Soup + 0.7 Ingr_Corn_Flks,_Kellogg'S
 + 1.3 Ingr_Couscous + 0.5 Ingr_Crm_Mshrm_Soup,W_Mlk
 + 8.5 Ingr_Frozen_Broccoli + 2 Ingr_Frozen_Corn + 0.2 Ingr_Grapes
 + 2.6 Ingr_Kiwifruit,Raw,Fresh + 0.3 Ingr_Lettuce,Iceberg,Raw
 + 0.9 Ingr_Macaroni,Ckd + 1.5 Ingr_New_E_Clamchwd,W_Mlk
 + 1.5 Ingr_Neweng_Clamchwd + 4 Ingr_Oatmeal + 0.6 Ingr_Oatmeal_Cookies
 + 3.1 Ingr_Oranges + 2.1 Ingr_Peanut_Butter + 1.3 Ingr_Peppers,_Sweet,_Raw
 + 4.3 Ingr_Popcorn,Air_Popped + 1.2 Ingr_Potato_Chips,Bbqflvr
 + 3.2 Ingr_Potatoes,_Baked + 0.9 Ingr_Pretzels + 4 Ingr_Raisin_Brn,_Kellg'S
 + 0.4 Ingr_Rice_Krispies + 11.6 Ingr_Spaghetti_W__Sauce + 0.7 Ingr_Special_K
 + 4.1 Ingr_Splt_Pea&Hamsoup + 1.4 Ingr_Tofu + 1.4 Ingr_Tomato,Red,Ripe,Raw
 + Ingr_Tomato_Soup + 1.8 Ingr_Tortilla_Chip + 4 Ingr_Vegetbeef_Soup
 + 1.3 Ingr_Wheat_Bread + 1.1 Ingr_White_Bread + 0.3 Ingr_White_Rice <= 250
Dietary_Fiber_g_minimum: 3.7 Ingr_Apple,Raw,W_Skin + 0.5 Ingr_Apple_Pie
 + 0.6 Ingr_Bagels + 2.7 Ingr_Banana + 8.6 Ingr_Beanbacn_Soup,W_Watr
 + 0.5 Ingr_Cap'N_Crunch + 1.6 Ingr_Carrots,Raw + 0.7 Ingr_Celery,_Raw
 + 2 Ingr_Cheerios + 1.5 Ingr_Chicknoodl_Soup + 0.7 Ingr_Corn_Flks,_Kellogg'S
 + 1.3 Ingr_Couscous + 0.5 Ingr_Crm_Mshrm_Soup,W_Mlk
 + 8.5 Ingr_Frozen_Broccoli + 2 Ingr_Frozen_Corn + 0.2 Ingr_Grapes
 + 2.6 Ingr_Kiwifruit,Raw,Fresh + 0.3 Ingr_Lettuce,Iceberg,Raw
 + 0.9 Ingr_Macaroni,Ckd + 1.5 Ingr_New_E_Clamchwd,W_Mlk
 + 1.5 Ingr_Neweng_Clamchwd + 4 Ingr_Oatmeal + 0.6 Ingr_Oatmeal_Cookies
 + 3.1 Ingr_Oranges + 2.1 Ingr_Peanut_Butter + 1.3 Ingr_Peppers,_Sweet,_Raw
 + 4.3 Ingr_Popcorn,Air_Popped + 1.2 Ingr_Potato_Chips,Bbqflvr
 + 3.2 Ingr_Potatoes,_Baked + 0.9 Ingr_Pretzels + 4 Ingr_Raisin_Brn,_Kellg'S
 + 0.4 Ingr_Rice_Krispies + 11.6 Ingr_Spaghetti_W__Sauce + 0.7 Ingr_Special_K
 + 4.1 Ingr_Splt_Pea&Hamsoup + 1.4 Ingr_Tofu + 1.4 Ingr_Tomato,Red,Ripe,Raw
 + Ingr_Tomato_Soup + 1.8 Ingr_Tortilla_Chip + 4 Ingr_Vegetbeef_Soup
 + 1.3 Ingr_Wheat_Bread + 1.1 Ingr_White_Bread + 0.3 Ingr_White_Rice >= 125
Iron_mg_maximum: 0.1 Ingr_2%_Lowfat_Milk + 0.1 Ingr_3.3%_Fat,Whole_Milk
 + 0.2 Ingr_Apple,Raw,W_Skin + 0.1 Ingr_Apple_Pie + Ingr_Bagels
 + 0.4 Ingr_Banana + 2 Ingr_Beanbacn_Soup,W_Watr + 0.4 Ingr_Bologna,Turkey
 + 7.5 Ingr_Cap'N_Crunch + 0.3 Ingr_Carrots,Raw + 0.2 Ingr_Celery,_Raw
 + 0.2 Ingr_Cheddar_Cheese + 4.5 Ingr_Cheerios + 1.5 Ingr_Chicknoodl_Soup
 + 0.4 Ingr_Chocolate_Chip_Cookies + 1.8 Ingr_Corn_Flks,_Kellogg'S
 + 0.3 Ingr_Couscous + 0.6 Ingr_Crm_Mshrm_Soup,W_Mlk
 + 0.6 Ingr_Frankfurter,_Beef + 2.3 Ingr_Frozen_Broccoli
 + 0.3 Ingr_Frozen_Corn + 0.1 Ingr_Grapes + 0.2 Ingr_Ham,Sliced,Extralean
 + 2.5 Ingr_Hamburger_W_Toppings + 2.3 Ingr_Hotdog,_Plain
 + 0.4 Ingr_Kielbasa,Prk + 0.3 Ingr_Kiwifruit,Raw,Fresh
 + 0.1 Ingr_Lettuce,Iceberg,Raw + Ingr_Macaroni,Ckd
 + 4.7 Ingr_Malt_O_Meal,Choc + 1.5 Ingr_New_E_Clamchwd,W_Mlk
 + 2.8 Ingr_Neweng_Clamchwd + 1.6 Ingr_Oatmeal + 0.5 Ingr_Oatmeal_Cookies
 + 0.1 Ingr_Oranges + 0.6 Ingr_Peanut_Butter + 0.3 Ingr_Peppers,_Sweet,_Raw
 + 0.9 Ingr_Pizza_W_Pepperoni + 0.7 Ingr_Poached_Eggs
 + 0.8 Ingr_Popcorn,Air_Popped + 0.4 Ingr_Pork + 0.5 Ingr_Potato_Chips,Bbqflvr
 + 4.3 Ingr_Potatoes,_Baked + 1.2 Ingr_Pretzels
 + 16.8 Ingr_Raisin_Brn,_Kellg'S + 1.8 Ingr_Rice_Krispies
 + 1.8 Ingr_Roasted_Chicken + 0.7 Ingr_Sardines_in_Oil
 + 0.7 Ingr_Scrambled_Eggs + 0.1 Ingr_Skim_Milk + 2.3 Ingr_Spaghetti_W__Sauce
 + 4.5 Ingr_Special_K + 2.1 Ingr_Splt_Pea&Hamsoup + 2.4 Ingr_Taco
 + 6.2 Ingr_Tofu + 0.6 Ingr_Tomato,Red,Ripe,Raw + 3.5 Ingr_Tomato_Soup
 + 0.4 Ingr_Tortilla_Chip + 2.2 Ingr_Vegetbeef_Soup + 0.7 Ingr_Wheat_Bread
 + 0.8 Ingr_White_Bread + 0.9 Ingr_White_Rice + 0.5 Ingr_White_Tuna_in_Water
 <= 40
Iron_mg_minimum: 0.1 Ingr_2%_Lowfat_Milk + 0.1 Ingr_3.3%_Fat,Whole_Milk
 + 0.2 Ingr_Apple,Raw,W_Skin + 0.1 Ingr_Apple_Pie + Ingr_Bagels
 + 0.4 Ingr_Banana + 2 Ingr_Beanbacn_Soup,W_Watr + 0.4 Ingr_Bologna,Turkey
 + 7.5 Ingr_Cap'N_Crunch + 0.3 Ingr_Carrots,Raw + 0.2 Ingr_Celery,_Raw
 + 0.2 Ingr_Cheddar_Cheese + 4.5 Ingr_Cheerios + 1.5 Ingr_Chicknoodl_Soup
 + 0.4 Ingr_Chocolate_Chip_Cookies + 1.8 Ingr_Corn_Flks,_Kellogg'S
 + 0.3 Ingr_Couscous + 0.6 Ingr_Crm_Mshrm_Soup,W_Mlk
 + 0.6 Ingr_Frankfurter,_Beef + 2.3 Ingr_Frozen_Broccoli
 + 0.3 Ingr_Frozen_Corn + 0.1 Ingr_Grapes + 0.2 Ingr_Ham,Sliced,Extralean
 + 2.5 Ingr_Hamburger_W_Toppings + 2.3 Ingr_Hotdog,_Plain
 + 0.4 Ingr_Kielbasa,Prk + 0.3 Ingr_Kiwifruit,Raw,Fresh
 + 0.1 Ingr_Lettuce,Iceberg,Raw + Ingr_Macaroni,Ckd
 + 4.7 Ingr_Malt_O_Meal,Choc + 1.5 Ingr_New_E_Clamchwd,W_Mlk
 + 2.8 Ingr_Neweng_Clamchwd + 1.6 Ingr_Oatmeal + 0.5 Ingr_Oatmeal_Cookies
 + 0.1 Ingr_Oranges + 0.6 Ingr_Peanut_Butter + 0.3 Ingr_Peppers,_Sweet,_Raw
 + 0.9 Ingr_Pizza_W_Pepperoni + 0.7 Ingr_Poached_Eggs
 + 0.8 Ingr_Popcorn,Air_Popped + 0.4 Ingr_Pork + 0.5 Ingr_Potato_Chips,Bbqflvr
 + 4.3 Ingr_Potatoes,_Baked + 1.2 Ingr_Pretzels
 + 16.8 Ingr_Raisin_Brn,_Kellg'S + 1.8 Ingr_Rice_Krispies
 + 1.8 Ingr_Roasted_Chicken + 0.7 Ingr_Sardines_in_Oil
 + 0.7 Ingr_Scrambled_Eggs + 0.1 Ingr_Skim_Milk + 2.3 Ingr_Spaghetti_W__Sauce
 + 4.5 Ingr_Special_K + 2.1 Ingr_Splt_Pea&Hamsoup + 2.4 Ingr_Taco
 + 6.2 Ingr_Tofu + 0.6 Ingr_Tomato,Red,Ripe,Raw + 3.5 Ingr_Tomato_Soup
 + 0.4 Ingr_Tortilla_Chip + 2.2 Ingr_Vegetbeef_Soup + 0.7 Ingr_Wheat_Bread
 + 0.8 Ingr_White_Bread + 0.9 Ingr_White_Rice + 0.5 Ingr_White_Tuna_in_Water
 >= 10
Protein_g_maximum: 8.1 Ingr_2%_Lowfat_Milk + 8 Ingr_3.3%_Fat,Whole_Milk
 + 0.3 Ingr_Apple,Raw,W_Skin + 0.5 Ingr_Apple_Pie + 3 Ingr_Bagels
 + 1.2 Ingr_Banana + 7.9 Ingr_Beanbacn_Soup,W_Watr + 3.9 Ingr_Bologna,Turkey
 + 1.4 Ingr_Cap'N_Crunch + 0.6 Ingr_Carrots,Raw + 0.3 Ingr_Celery,_Raw
 + 7 Ingr_Cheddar_Cheese + 4.3 Ingr_Cheerios + 7.9 Ingr_Chicknoodl_Soup
 + 0.9 Ingr_Chocolate_Chip_Cookies + 2.3 Ingr_Corn_Flks,_Kellogg'S
 + 3.4 Ingr_Couscous + 6.1 Ingr_Crm_Mshrm_Soup,W_Mlk
 + 5.4 Ingr_Frankfurter,_Beef + 8 Ingr_Frozen_Broccoli + 2.5 Ingr_Frozen_Corn
 + 0.2 Ingr_Grapes + 5.5 Ingr_Ham,Sliced,Extralean
 + 13.6 Ingr_Hamburger_W_Toppings + 10.4 Ingr_Hotdog,_Plain
 + 3.4 Ingr_Kielbasa,Prk + 0.8 Ingr_Kiwifruit,Raw,Fresh
 + 0.2 Ingr_Lettuce,Iceberg,Raw + 3.3 Ingr_Macaroni,Ckd
 + 17.3 Ingr_Malt_O_Meal,Choc + 9.5 Ingr_New_E_Clamchwd,W_Mlk
 + 10.9 Ingr_Neweng_Clamchwd + 6.1 Ingr_Oatmeal + 1.1 Ingr_Oatmeal_Cookies
 + 1.2 Ingr_Oranges + 7.7 Ingr_Peanut_Butter + 0.7 Ingr_Peppers,_Sweet,_Raw
 + 10.1 Ingr_Pizza_W_Pepperoni + 6.2 Ingr_Poached_Eggs
 + 3.4 Ingr_Popcorn,Air_Popped + 13.8 Ingr_Pork
 + 2.2 Ingr_Potato_Chips,Bbqflvr + 3.7 Ingr_Potatoes,_Baked
 + 2.6 Ingr_Pretzels + 4 Ingr_Raisin_Brn,_Kellg'S + 1.9 Ingr_Rice_Krispies
 + 42.2 Ingr_Roasted_Chicken + 5.9 Ingr_Sardines_in_Oil
 + 6.7 Ingr_Scrambled_Eggs + 8.4 Ingr_Skim_Milk + 8.2 Ingr_Spaghetti_W__Sauce
 + 5.6 Ingr_Special_K + 11.1 Ingr_Splt_Pea&Hamsoup + 20.7 Ingr_Taco
 + 9.4 Ingr_Tofu + Ingr_Tomato,Red,Ripe,Raw + 4.1 Ingr_Tomato_Soup
 + 2 Ingr_Tortilla_Chip + 11.2 Ingr_Vegetbeef_Soup + 2.2 Ingr_Wheat_Bread
 + 2.3 Ingr_White_Bread + 2.1 Ingr_White_Rice + 22.7 Ingr_White_Tuna_in_Water
 <= 100
Protein_g_minimum: 8.1 Ingr_2%_Lowfat_Milk + 8 Ingr_3.3%_Fat,Whole_Milk
 + 0.3 Ingr_Apple,Raw,W_Skin + 0.5 Ingr_Apple_Pie + 3 Ingr_Bagels
 + 1.2 Ingr_Banana + 7.9 Ingr_Beanbacn_Soup,W_Watr + 3.9 Ingr_Bologna,Turkey
 + 1.4 Ingr_Cap'N_Crunch + 0.6 Ingr_Carrots,Raw + 0.3 Ingr_Celery,_Raw
 + 7 Ingr_Cheddar_Cheese + 4.3 Ingr_Cheerios + 7.9 Ingr_Chicknoodl_Soup
 + 0.9 Ingr_Chocolate_Chip_Cookies + 2.3 Ingr_Corn_Flks,_Kellogg'S
 + 3.4 Ingr_Couscous + 6.1 Ingr_Crm_Mshrm_Soup,W_Mlk
 + 5.4 Ingr_Frankfurter,_Beef + 8 Ingr_Frozen_Broccoli + 2.5 Ingr_Frozen_Corn
 + 0.2 Ingr_Grapes + 5.5 Ingr_Ham,Sliced,Extralean
 + 13.6 Ingr_Hamburger_W_Toppings + 10.4 Ingr_Hotdog,_Plain
 + 3.4 Ingr_Kielbasa,Prk + 0.8 Ingr_Kiwifruit,Raw,Fresh
 + 0.2 Ingr_Lettuce,Iceberg,Raw + 3.3 Ingr_Macaroni,Ckd
 + 17.3 Ingr_Malt_O_Meal,Choc + 9.5 Ingr_New_E_Clamchwd,W_Mlk
 + 10.9 Ingr_Neweng_Clamchwd + 6.1 Ingr_Oatmeal + 1.1 Ingr_Oatmeal_Cookies
 + 1.2 Ingr_Oranges + 7.7 Ingr_Peanut_Butter + 0.7 Ingr_Peppers,_Sweet,_Raw
 + 10.1 Ingr_Pizza_W_Pepperoni + 6.2 Ingr_Poached_Eggs
 + 3.4 Ingr_Popcorn,Air_Popped + 13.8 Ingr_Pork
 + 2.2 Ingr_Potato_Chips,Bbqflvr + 3.7 Ingr_Potatoes,_Baked
 + 2.6 Ingr_Pretzels + 4 Ingr_Raisin_Brn,_Kellg'S + 1.9 Ingr_Rice_Krispies
 + 42.2 Ingr_Roasted_Chicken + 5.9 Ingr_Sardines_in_Oil
 + 6.7 Ingr_Scrambled_Eggs + 8.4 Ingr_Skim_Milk + 8.2 Ingr_Spaghetti_W__Sauce
 + 5.6 Ingr_Special_K + 11.1 Ingr_Splt_Pea&Hamsoup + 20.7 Ingr_Taco
 + 9.4 Ingr_Tofu + Ingr_Tomato,Red,Ripe,Raw + 4.1 Ingr_Tomato_Soup
 + 2 Ingr_Tortilla_Chip + 11.2 Ingr_Vegetbeef_Soup + 2.2 Ingr_Wheat_Bread
 + 2.3 Ingr_White_Bread + 2.1 Ingr_White_Rice + 22.7 Ingr_White_Tuna_in_Water
 >= 60
Sodium_mg_maximum: 121.8 Ingr_2%_Lowfat_Milk + 119.6 Ingr_3.3%_Fat,Whole_Milk
 + 75.4 Ingr_Apple_Pie + 151.4 Ingr_Bagels + 1.1 Ingr_Banana
 + 951.3 Ingr_Beanbacn_Soup,W_Watr + 248.9 Ingr_Bologna,Turkey
 + 41.3 Ingr_Butter,Regular + 213.3 Ingr_Cap'N_Crunch + 19.2 Ingr_Carrots,Raw
 + 34.8 Ingr_Celery,_Raw + 173.7 Ingr_Cheddar_Cheese + 307.6 Ingr_Cheerios
 + 1862.2 Ingr_Chicknoodl_Soup + 57.8 Ingr_Chocolate_Chip_Cookies
 + 290.5 Ingr_Corn_Flks,_Kellogg'S + 4.5 Ingr_Couscous
 + 1076.3 Ingr_Crm_Mshrm_Soup,W_Mlk + 461.7 Ingr_Frankfurter,_Beef
 + 68.2 Ingr_Frozen_Broccoli + 2.5 Ingr_Frozen_Corn + 0.5 Ingr_Grapes
 + 405.1 Ingr_Ham,Sliced,Extralean + 563.9 Ingr_Hamburger_W_Toppings
 + 670.3 Ingr_Hotdog,_Plain + 279.8 Ingr_Kielbasa,Prk
 + 3.8 Ingr_Kiwifruit,Raw,Fresh + 1.8 Ingr_Lettuce,Iceberg,Raw
 + 0.7 Ingr_Macaroni,Ckd + 16.5 Ingr_Malt_O_Meal,Choc
 + 992 Ingr_New_E_Clamchwd,W_Mlk + 1864.9 Ingr_Neweng_Clamchwd
 + 2.3 Ingr_Oatmeal + 68.9 Ingr_Oatmeal_Cookies + 155.5 Ingr_Peanut_Butter
 + 1.5 Ingr_Peppers,_Sweet,_Raw + 267 Ingr_Pizza_W_Pepperoni
 + 140 Ingr_Poached_Eggs + 1.1 Ingr_Popcorn,Air_Popped + 38.4 Ingr_Pork
 + 212.6 Ingr_Potato_Chips,Bbqflvr + 15.2 Ingr_Potatoes,_Baked
 + 486.2 Ingr_Pretzels + 204.4 Ingr_Raisin_Brn,_Kellg'S
 + 340.8 Ingr_Rice_Krispies + 125.6 Ingr_Roasted_Chicken
 + 121.2 Ingr_Sardines_in_Oil + 168 Ingr_Scrambled_Eggs + 126.2 Ingr_Skim_Milk
 + 1237.1 Ingr_Spaghetti_W__Sauce + 265.5 Ingr_Special_K
 + 964.8 Ingr_Splt_Pea&Hamsoup + 802 Ingr_Taco + 8.1 Ingr_Tofu
 + 11.1 Ingr_Tomato,Red,Ripe,Raw + 1744.4 Ingr_Tomato_Soup
 + 149.7 Ingr_Tortilla_Chip + 1915.1 Ingr_Vegetbeef_Soup
 + 134.5 Ingr_Wheat_Bread + 132.5 Ingr_White_Bread + 0.8 Ingr_White_Rice
 + 333.2 Ingr_White_Tuna_in_Water <= 2000
Sodium_mg_minimum: 121.8 Ingr_2%_Lowfat_Milk + 119.6 Ingr_3.3%_Fat,Whole_Milk
 + 75.4 Ingr_Apple_Pie + 151.4 Ingr_Bagels + 1.1 Ingr_Banana
 + 951.3 Ingr_Beanbacn_Soup,W_Watr + 248.9 Ingr_Bologna,Turkey
 + 41.3 Ingr_Butter,Regular + 213.3 Ingr_Cap'N_Crunch + 19.2 Ingr_Carrots,Raw
 + 34.8 Ingr_Celery,_Raw + 173.7 Ingr_Cheddar_Cheese + 307.6 Ingr_Cheerios
 + 1862.2 Ingr_Chicknoodl_Soup + 57.8 Ingr_Chocolate_Chip_Cookies
 + 290.5 Ingr_Corn_Flks,_Kellogg'S + 4.5 Ingr_Couscous
 + 1076.3 Ingr_Crm_Mshrm_Soup,W_Mlk + 461.7 Ingr_Frankfurter,_Beef
 + 68.2 Ingr_Frozen_Broccoli + 2.5 Ingr_Frozen_Corn + 0.5 Ingr_Grapes
 + 405.1 Ingr_Ham,Sliced,Extralean + 563.9 Ingr_Hamburger_W_Toppings
 + 670.3 Ingr_Hotdog,_Plain + 279.8 Ingr_Kielbasa,Prk
 + 3.8 Ingr_Kiwifruit,Raw,Fresh + 1.8 Ingr_Lettuce,Iceberg,Raw
 + 0.7 Ingr_Macaroni,Ckd + 16.5 Ingr_Malt_O_Meal,Choc
 + 992 Ingr_New_E_Clamchwd,W_Mlk + 1864.9 Ingr_Neweng_Clamchwd
 + 2.3 Ingr_Oatmeal + 68.9 Ingr_Oatmeal_Cookies + 155.5 Ingr_Peanut_Butter
 + 1.5 Ingr_Peppers,_Sweet,_Raw + 267 Ingr_Pizza_W_Pepperoni
 + 140 Ingr_Poached_Eggs + 1.1 Ingr_Popcorn,Air_Popped + 38.4 Ingr_Pork
 + 212.6 Ingr_Potato_Chips,Bbqflvr + 15.2 Ingr_Potatoes,_Baked
 + 486.2 Ingr_Pretzels + 204.4 Ingr_Raisin_Brn,_Kellg'S
 + 340.8 Ingr_Rice_Krispies + 125.6 Ingr_Roasted_Chicken
 + 121.2 Ingr_Sardines_in_Oil + 168 Ingr_Scrambled_Eggs + 126.2 Ingr_Skim_Milk
 + 1237.1 Ingr_Spaghetti_W__Sauce + 265.5 Ingr_Special_K
 + 964.8 Ingr_Splt_Pea&Hamsoup + 802 Ingr_Taco + 8.1 Ingr_Tofu
 + 11.1 Ingr_Tomato,Red,Ripe,Raw + 1744.4 Ingr_Tomato_Soup
 + 149.7 Ingr_Tortilla_Chip + 1915.1 Ingr_Vegetbeef_Soup
 + 134.5 Ingr_Wheat_Bread + 132.5 Ingr_White_Bread + 0.8 Ingr_White_Rice
 + 333.2 Ingr_White_Tuna_in_Water >= 800
Total_Fat_g_maximum: 4.7 Ingr_2%_Lowfat_Milk + 8.1 Ingr_3.3%_Fat,Whole_Milk
 + 0.5 Ingr_Apple,Raw,W_Skin + 3.1 Ingr_Apple_Pie + 0.5 Ingr_Bagels
 + 0.5 Ingr_Banana + 5.9 Ingr_Beanbacn_Soup,W_Watr + 4.3 Ingr_Bologna,Turkey
 + 4.1 Ingr_Butter,Regular + 2.6 Ingr_Cap'N_Crunch + 0.1 Ingr_Carrots,Raw
 + 0.1 Ingr_Celery,_Raw + 9.3 Ingr_Cheddar_Cheese + 1.8 Ingr_Cheerios
 + 4.6 Ingr_Chicknoodl_Soup + 4.5 Ingr_Chocolate_Chip_Cookies
 + 0.1 Ingr_Corn_Flks,_Kellogg'S + 0.1 Ingr_Couscous
 + 13.6 Ingr_Crm_Mshrm_Soup,W_Mlk + 12.8 Ingr_Frankfurter,_Beef
 + 0.8 Ingr_Frozen_Broccoli + 0.6 Ingr_Frozen_Corn + 0.1 Ingr_Grapes
 + 1.4 Ingr_Ham,Sliced,Extralean + 10.2 Ingr_Hamburger_W_Toppings
 + 14.5 Ingr_Hotdog,_Plain + 7.1 Ingr_Kielbasa,Prk
 + 0.3 Ingr_Kiwifruit,Raw,Fresh + 0.5 Ingr_Macaroni,Ckd
 + 1.5 Ingr_Malt_O_Meal,Choc + 6.6 Ingr_New_E_Clamchwd,W_Mlk
 + 5 Ingr_Neweng_Clamchwd + 2.3 Ingr_Oatmeal + 3.3 Ingr_Oatmeal_Cookies
 + 0.2 Ingr_Oranges + 16 Ingr_Peanut_Butter + 0.1 Ingr_Peppers,_Sweet,_Raw
 + 7 Ingr_Pizza_W_Pepperoni + 5 Ingr_Poached_Eggs
 + 1.2 Ingr_Popcorn,Air_Popped + 72.2 Ingr_Pork
 + 9.2 Ingr_Potato_Chips,Bbqflvr + 0.2 Ingr_Potatoes,_Baked + Ingr_Pretzels
 + 0.7 Ingr_Raisin_Brn,_Kellg'S + 0.2 Ingr_Rice_Krispies
 + 10.8 Ingr_Roasted_Chicken + 2.7 Ingr_Sardines_in_Oil
 + 7.3 Ingr_Scrambled_Eggs + 0.4 Ingr_Skim_Milk + 12.3 Ingr_Spaghetti_W__Sauce
 + 0.1 Ingr_Special_K + 4 Ingr_Splt_Pea&Hamsoup + 20.6 Ingr_Taco
 + 5.5 Ingr_Tofu + 0.4 Ingr_Tomato,Red,Ripe,Raw + 3.8 Ingr_Tomato_Soup
 + 7.4 Ingr_Tortilla_Chip + 3.8 Ingr_Vegetbeef_Soup + Ingr_Wheat_Bread
 + Ingr_White_Bread + 0.2 Ingr_White_Rice + 2.1 Ingr_White_Tuna_in_Water <= 70
Total_Fat_g_minimum: 4.7 Ingr_2%_Lowfat_Milk + 8.1 Ingr_3.3%_Fat,Whole_Milk
 + 0.5 Ingr_Apple,Raw,W_Skin + 3.1 Ingr_Apple_Pie + 0.5 Ingr_Bagels
 + 0.5 Ingr_Banana + 5.9 Ingr_Beanbacn_Soup,W_Watr + 4.3 Ingr_Bologna,Turkey
 + 4.1 Ingr_Butter,Regular + 2.6 Ingr_Cap'N_Crunch + 0.1 Ingr_Carrots,Raw
 + 0.1 Ingr_Celery,_Raw + 9.3 Ingr_Cheddar_Cheese + 1.8 Ingr_Cheerios
 + 4.6 Ingr_Chicknoodl_Soup + 4.5 Ingr_Chocolate_Chip_Cookies
 + 0.1 Ingr_Corn_Flks,_Kellogg'S + 0.1 Ingr_Couscous
 + 13.6 Ingr_Crm_Mshrm_Soup,W_Mlk + 12.8 Ingr_Frankfurter,_Beef
 + 0.8 Ingr_Frozen_Broccoli + 0.6 Ingr_Frozen_Corn + 0.1 Ingr_Grapes
 + 1.4 Ingr_Ham,Sliced,Extralean + 10.2 Ingr_Hamburger_W_Toppings
 + 14.5 Ingr_Hotdog,_Plain + 7.1 Ingr_Kielbasa,Prk
 + 0.3 Ingr_Kiwifruit,Raw,Fresh + 0.5 Ingr_Macaroni,Ckd
 + 1.5 Ingr_Malt_O_Meal,Choc + 6.6 Ingr_New_E_Clamchwd,W_Mlk
 + 5 Ingr_Neweng_Clamchwd + 2.3 Ingr_Oatmeal + 3.3 Ingr_Oatmeal_Cookies
 + 0.2 Ingr_Oranges + 16 Ingr_Peanut_Butter + 0.1 Ingr_Peppers,_Sweet,_Raw
 + 7 Ingr_Pizza_W_Pepperoni + 5 Ingr_Poached_Eggs
 + 1.2 Ingr_Popcorn,Air_Popped + 72.2 Ingr_Pork
 + 9.2 Ingr_Potato_Chips,Bbqflvr + 0.2 Ingr_Potatoes,_Baked + Ingr_Pretzels
 + 0.7 Ingr_Raisin_Brn,_Kellg'S + 0.2 Ingr_Rice_Krispies
 + 10.8 Ingr_Roasted_Chicken + 2.7 Ingr_Sardines_in_Oil
 + 7.3 Ingr_Scrambled_Eggs + 0.4 Ingr_Skim_Milk + 12.3 Ingr_Spaghetti_W__Sauce
 + 0.1 Ingr_Special_K + 4 Ingr_Splt_Pea&Hamsoup + 20.6 Ingr_Taco
 + 5.5 Ingr_Tofu + 0.4 Ingr_Tomato,Red,Ripe,Raw + 3.8 Ingr_Tomato_Soup
 + 7.4 Ingr_Tortilla_Chip + 3.8 Ingr_Vegetbeef_Soup + Ingr_Wheat_Bread
 + Ingr_White_Bread + 0.2 Ingr_White_Rice + 2.1 Ingr_White_Tuna_in_Water >= 20
Vit_A_IU_maximum: 500.2 Ingr_2%_Lowfat_Milk + 307.4 Ingr_3.3%_Fat,Whole_Milk
 + 73.1 Ingr_Apple,Raw,W_Skin + 35.2 Ingr_Apple_Pie + 92.3 Ingr_Banana
 + 888 Ingr_Beanbacn_Soup,W_Watr + 152.9 Ingr_Butter,Regular
 + 40.6 Ingr_Cap'N_Crunch + 15471 Ingr_Carrots,Raw + 53.6 Ingr_Celery,_Raw
 + 296.5 Ingr_Cheddar_Cheese + 1252.2 Ingr_Cheerios
 + 1308.7 Ingr_Chicknoodl_Soup + 101.8 Ingr_Chocolate_Chip_Cookies
 + 1252.2 Ingr_Corn_Flks,_Kellogg'S + 153.8 Ingr_Crm_Mshrm_Soup,W_Mlk
 + 5867.4 Ingr_Frozen_Broccoli + 106.6 Ingr_Frozen_Corn + 24 Ingr_Grapes
 + 126.3 Ingr_Hamburger_W_Toppings + 133 Ingr_Kiwifruit,Raw,Fresh
 + 66 Ingr_Lettuce,Iceberg,Raw + 163.7 Ingr_New_E_Clamchwd,W_Mlk
 + 20.1 Ingr_Neweng_Clamchwd + 37.4 Ingr_Oatmeal + 2.9 Ingr_Oatmeal_Cookies
 + 268.6 Ingr_Oranges + 467.7 Ingr_Peppers,_Sweet,_Raw
 + 281.9 Ingr_Pizza_W_Pepperoni + 316 Ingr_Poached_Eggs
 + 55.6 Ingr_Popcorn,Air_Popped + 14.7 Ingr_Pork
 + 61.5 Ingr_Potato_Chips,Bbqflvr + 1250.2 Ingr_Raisin_Brn,_Kellg'S
 + 1252.2 Ingr_Rice_Krispies + 77.4 Ingr_Roasted_Chicken
 + 53.8 Ingr_Sardines_in_Oil + 409.2 Ingr_Scrambled_Eggs
 + 499.8 Ingr_Skim_Milk + 3055.2 Ingr_Spaghetti_W__Sauce
 + 1252.2 Ingr_Special_K + 4872 Ingr_Splt_Pea&Hamsoup + 855 Ingr_Taco
 + 98.6 Ingr_Tofu + 766.3 Ingr_Tomato,Red,Ripe,Raw + 1393 Ingr_Tomato_Soup
 + 55.6 Ingr_Tortilla_Chip + 3785.1 Ingr_Vegetbeef_Soup
 + 68 Ingr_White_Tuna_in_Water <= 10000
Vit_A_IU_minimum: 500.2 Ingr_2%_Lowfat_Milk + 307.4 Ingr_3.3%_Fat,Whole_Milk
 + 73.1 Ingr_Apple,Raw,W_Skin + 35.2 Ingr_Apple_Pie + 92.3 Ingr_Banana
 + 888 Ingr_Beanbacn_Soup,W_Watr + 152.9 Ingr_Butter,Regular
 + 40.6 Ingr_Cap'N_Crunch + 15471 Ingr_Carrots,Raw + 53.6 Ingr_Celery,_Raw
 + 296.5 Ingr_Cheddar_Cheese + 1252.2 Ingr_Cheerios
 + 1308.7 Ingr_Chicknoodl_Soup + 101.8 Ingr_Chocolate_Chip_Cookies
 + 1252.2 Ingr_Corn_Flks,_Kellogg'S + 153.8 Ingr_Crm_Mshrm_Soup,W_Mlk
 + 5867.4 Ingr_Frozen_Broccoli + 106.6 Ingr_Frozen_Corn + 24 Ingr_Grapes
 + 126.3 Ingr_Hamburger_W_Toppings + 133 Ingr_Kiwifruit,Raw,Fresh
 + 66 Ingr_Lettuce,Iceberg,Raw + 163.7 Ingr_New_E_Clamchwd,W_Mlk
 + 20.1 Ingr_Neweng_Clamchwd + 37.4 Ingr_Oatmeal + 2.9 Ingr_Oatmeal_Cookies
 + 268.6 Ingr_Oranges + 467.7 Ingr_Peppers,_Sweet,_Raw
 + 281.9 Ingr_Pizza_W_Pepperoni + 316 Ingr_Poached_Eggs
 + 55.6 Ingr_Popcorn,Air_Popped + 14.7 Ingr_Pork
 + 61.5 Ingr_Potato_Chips,Bbqflvr + 1250.2 Ingr_Raisin_Brn,_Kellg'S
 + 1252.2 Ingr_Rice_Krispies + 77.4 Ingr_Roasted_Chicken
 + 53.8 Ingr_Sardines_in_Oil + 409.2 Ingr_Scrambled_Eggs
 + 499.8 Ingr_Skim_Milk + 3055.2 Ingr_Spaghetti_W__Sauce
 + 1252.2 Ingr_Special_K + 4872 Ingr_Splt_Pea&Hamsoup + 855 Ingr_Taco
 + 98.6 Ingr_Tofu + 766.3 Ingr_Tomato,Red,Ripe,Raw + 1393 Ingr_Tomato_Soup
 + 55.6 Ingr_Tortilla_Chip + 3785.1 Ingr_Vegetbeef_Soup
 + 68 Ingr_White_Tuna_in_Water >= 1000
Vit_C_IU_maximum: 2.3 Ingr_2%_Lowfat_Milk + 2.3 Ingr_3.3%_Fat,Whole_Milk
 + 7.9 Ingr_Apple,Raw,W_Skin + 0.9 Ingr_Apple_Pie + 10.4 Ingr_Banana
 + 1.5 Ingr_Beanbacn_Soup,W_Watr + 5.1 Ingr_Carrots,Raw + 2.8 Ingr_Celery,_Raw
 + 15.1 Ingr_Cheerios + 15.1 Ingr_Corn_Flks,_Kellogg'S
 + 2.2 Ingr_Crm_Mshrm_Soup,W_Mlk + 10.8 Ingr_Frankfurter,_Beef
 + 160.2 Ingr_Frozen_Broccoli + 5.2 Ingr_Frozen_Corn + Ingr_Grapes
 + 7.4 Ingr_Ham,Sliced,Extralean + 2.6 Ingr_Hamburger_W_Toppings
 + 0.1 Ingr_Hotdog,_Plain + 5.5 Ingr_Kielbasa,Prk
 + 74.5 Ingr_Kiwifruit,Raw,Fresh + 0.8 Ingr_Lettuce,Iceberg,Raw
 + 3.5 Ingr_New_E_Clamchwd,W_Mlk + 4.8 Ingr_Neweng_Clamchwd
 + 0.1 Ingr_Oatmeal_Cookies + 69.7 Ingr_Oranges
 + 66.1 Ingr_Peppers,_Sweet,_Raw + 1.6 Ingr_Pizza_W_Pepperoni
 + 9.6 Ingr_Potato_Chips,Bbqflvr + 15.6 Ingr_Potatoes,_Baked
 + 15.1 Ingr_Rice_Krispies + 0.1 Ingr_Scrambled_Eggs + 2.4 Ingr_Skim_Milk
 + 27.9 Ingr_Spaghetti_W__Sauce + 15.1 Ingr_Special_K
 + 7 Ingr_Splt_Pea&Hamsoup + 2.2 Ingr_Taco + 0.1 Ingr_Tofu
 + 23.5 Ingr_Tomato,Red,Ripe,Raw + 133 Ingr_Tomato_Soup
 + 4.8 Ingr_Vegetbeef_Soup <= 5000
Vit_C_IU_minimum: 2.3 Ingr_2%_Lowfat_Milk + 2.3 Ingr_3.3%_Fat,Whole_Milk
 + 7.9 Ingr_Apple,Raw,W_Skin + 0.9 Ingr_Apple_Pie + 10.4 Ingr_Banana
 + 1.5 Ingr_Beanbacn_Soup,W_Watr + 5.1 Ingr_Carrots,Raw + 2.8 Ingr_Celery,_Raw
 + 15.1 Ingr_Cheerios + 15.1 Ingr_Corn_Flks,_Kellogg'S
 + 2.2 Ingr_Crm_Mshrm_Soup,W_Mlk + 10.8 Ingr_Frankfurter,_Beef
 + 160.2 Ingr_Frozen_Broccoli + 5.2 Ingr_Frozen_Corn + Ingr_Grapes
 + 7.4 Ingr_Ham,Sliced,Extralean + 2.6 Ingr_Hamburger_W_Toppings
 + 0.1 Ingr_Hotdog,_Plain + 5.5 Ingr_Kielbasa,Prk
 + 74.5 Ingr_Kiwifruit,Raw,Fresh + 0.8 Ingr_Lettuce,Iceberg,Raw
 + 3.5 Ingr_New_E_Clamchwd,W_Mlk + 4.8 Ingr_Neweng_Clamchwd
 + 0.1 Ingr_Oatmeal_Cookies + 69.7 Ingr_Oranges
 + 66.1 Ingr_Peppers,_Sweet,_Raw + 1.6 Ingr_Pizza_W_Pepperoni
 + 9.6 Ingr_Potato_Chips,Bbqflvr + 15.6 Ingr_Potatoes,_Baked
 + 15.1 Ingr_Rice_Krispies + 0.1 Ingr_Scrambled_Eggs + 2.4 Ingr_Skim_Milk
 + 27.9 Ingr_Spaghetti_W__Sauce + 15.1 Ingr_Special_K
 + 7 Ingr_Splt_Pea&Hamsoup + 2.2 Ingr_Taco + 0.1 Ingr_Tofu
 + 23.5 Ingr_Tomato,Red,Ripe,Raw + 133 Ingr_Tomato_Soup
 + 4.8 Ingr_Vegetbeef_Soup >= 400
End
